W=5;
H=5;

MAX_TIME=13;
MAX_TRACKS=9;

TARGET=(5,5);

TRAINS=[(2,5,LEFT),(2,1,RIGHT)];
DECOYS=[(4,2,TOP)];

INIT_POS=[
(2,1,STRAIGHT_RL),
(2,5,STRAIGHT_RL),
(3,2,ESWITCH_T_D_R),
(4,2,STRAIGHT_TD),
(4,3,ROCK),
(5,4,STRAIGHT_RL),
(5,5,STRAIGHT_RL),
];
TUNNEL_PAIRS=[];

GATES=[];
ACTIVATIONS=[];

DSWITCHES=[];
STATIONS=[];

SEMAPHORE_SUPPLY=0;
